Defect-free TiO2 slab
    1.0000000000
   17.8080654144    0.0000000000    0.0000000000
    0.0000000000   26.3649997712    0.0000000000
    0.0000000000    0.0000000000   29.4789047241
Ti O
         240         480
Selective dynamics
Direct
    0.0833438000    0.1249991770    0.5030870000 T T T
    0.2500030000    0.1249992495    0.5030460000 T T T
    0.4166660000    0.1249991140    0.5030380000 T T T
    0.5833340000    0.1249988335    0.5030380000 T T T
    0.7499970000    0.1249984625    0.5030460000 T T T
    0.9166570000    0.1249986615    0.5030870000 T T T
    0.0833326000    0.3749990325    0.5030380000 T T T
    0.2499950000    0.3749991045    0.5030470000 T T T
    0.4166540000    0.3749990325    0.5030890000 T T T
    0.5833440000    0.3749986345    0.5030890000 T T T
    0.7500050000    0.3749982730    0.5030470000 T T T
    0.9166670000    0.3749986345    0.5030380000 T T T
    0.0833438000    0.6249991770    0.5030870000 T T T
    0.2500030000    0.6249992495    0.5030460000 T T T
    0.4166660000    0.6249991140    0.5030380000 T T T
    0.5833340000    0.6249988335    0.5030380000 T T T
    0.7499970000    0.6249984625    0.5030460000 T T T
    0.9166570000    0.6249986615    0.5030870000 T T T
    0.0833326000    0.8749990325    0.5030380000 T T T
    0.2499950000    0.8749991045    0.5030470000 T T T
    0.4166540000    0.8749990325    0.5030890000 T T T
    0.5833440000    0.8749986345    0.5030890000 T T T
    0.7500050000    0.8749982730    0.5030470000 T T T
    0.9166670000    0.8749986345    0.5030380000 T T T
    0.0000000000    0.0000082425    0.4913410000 T T T
    0.1666640000    0.9999992040    0.4913450000 T T T
    0.3333340000    0.9999993125    0.4913450000 T T T
    0.4999990000    0.9999904505    0.4913420000 T T T
    0.6666650000    0.9999986255    0.4913460000 T T T
    0.8333360000    0.9999983000    0.4913450000 T T T
    0.0000000000    0.2499904685    0.4913410000 T T T
    0.1666640000    0.2499992585    0.4913450000 T T T
    0.3333340000    0.2499992585    0.4913450000 T T T
    0.4999990000    0.2500083195    0.4913410000 T T T
    0.6666650000    0.2499988605    0.4913460000 T T T
    0.8333360000    0.2499989870    0.4913450000 T T T
    0.0000000000    0.5000082425    0.4913410000 T T T
    0.1666640000    0.4999992040    0.4913450000 T T T
    0.3333340000    0.4999993125    0.4913450000 T T T
    0.4999990000    0.4999904505    0.4913420000 T T T
    0.6666650000    0.4999986255    0.4913460000 T T T
    0.8333360000    0.4999983000    0.4913450000 T T T
    0.0000000000    0.7499904685    0.4913410000 T T T
    0.1666640000    0.7499992585    0.4913450000 T T T
    0.3333340000    0.7499992585    0.4913450000 T T T
    0.4999990000    0.7500083195    0.4913410000 T T T
    0.6666650000    0.7499988605    0.4913460000 T T T
    0.8333360000    0.7499989870    0.4913450000 T T T
    0.0000000000    0.1249993850    0.3871050000 T T T
    0.1666590000    0.1249994575    0.3870850000 T T T
    0.3333340000    0.1249993670    0.3870690000 T T T
    0.4999990000    0.1249992585    0.3870680000 T T T
    0.6666650000    0.1249990595    0.3870690000 T T T
    0.8333410000    0.1249991140    0.3870840000 T T T
    0.0000000000    0.3749992135    0.3870690000 T T T
    0.1666650000    0.3749992495    0.3870710000 T T T
    0.3333400000    0.3749993580    0.3870860000 T T T
    0.5000000000    0.3749991770    0.3871060000 T T T
    0.6666600000    0.3749991045    0.3870850000 T T T
    0.8333360000    0.3749988515    0.3870700000 T T T
    0.0000000000    0.6249993850    0.3871050000 T T T
    0.1666590000    0.6249994575    0.3870850000 T T T
    0.3333340000    0.6249993670    0.3870690000 T T T
    0.4999990000    0.6249992585    0.3870680000 T T T
    0.6666650000    0.6249990595    0.3870690000 T T T
    0.8333410000    0.6249991140    0.3870840000 T T T
    0.0000000000    0.8749992135    0.3870690000 T T T
    0.1666650000    0.8749992495    0.3870710000 T T T
    0.3333400000    0.8749993580    0.3870860000 T T T
    0.5000000000    0.8749991770    0.3871060000 T T T
    0.6666600000    0.8749991045    0.3870850000 T T T
    0.8333360000    0.8749988515    0.3870700000 T T T
    0.0833350000    0.0000000000    0.3803100000 T T T
    0.0833349000    0.2499990955    0.3803100000 T T T
    0.2499990000    0.2499995300    0.3803120000 T T T
    0.4166640000    0.2499996200    0.3803100000 T T T
    0.5833360000    0.2499994030    0.3803100000 T T T
    0.7500010000    0.2499989330    0.3803120000 T T T
    0.9166650000    0.2499988425    0.3803100000 T T T
    0.0000000000    0.4999991320    0.2677300000 T T T
    0.2500000000    0.9999992040    0.3803120000 T T T
    0.4166640000    0.9999989510    0.3803100000 T T T
    0.5833350000    0.9999989150    0.3803100000 T T T
    0.7500000000    0.9999992405    0.3803120000 T T T
    0.9166650000    0.9999994210    0.3803100000 T T T
    0.0833350000    0.5000000000    0.3803100000 T T T
    0.2500000000    0.4999992040    0.3803120000 T T T
    0.4166640000    0.4999989510    0.3803100000 T T T
    0.5833350000    0.4999989150    0.3803100000 T T T
    0.7500000000    0.4999992405    0.3803120000 T T T
    0.9166650000    0.4999994210    0.3803100000 T T T
    0.0833349000    0.7499990955    0.3803100000 T T T
    0.2499990000    0.7499995300    0.3803120000 T T T
    0.4166640000    0.7499996200    0.3803100000 T T T
    0.5833360000    0.7499994030    0.3803100000 T T T
    0.7500010000    0.7499989330    0.3803120000 T T T
    0.9166650000    0.7499988425    0.3803100000 T T T
    0.0000000000    0.9999991320    0.2677300000 T T T
    0.1666670000    0.0000000000    0.2677300000 T T T
    0.3333350000    0.0000000000    0.2677300000 T T T
    0.5000010000    0.0000000000    0.2677300000 T T T
    0.6666670000    0.0000000000    0.2677280000 T T T
    0.8333360000    0.0000000000    0.2677290000 T T T
    0.0833323000    0.1249996020    0.2705980000 T T T
    0.2499940000    0.1249998645    0.2705900000 T T T
    0.4166630000    0.1249997560    0.2705900000 T T T
    0.5833400000    0.1249996835    0.2705900000 T T T
    0.7500100000    0.1249996110    0.2705900000 T T T
    0.9166720000    0.1249996110    0.2705980000 T T T
    0.0000000000    0.2499998370    0.2677300000 T T T
    0.1666670000    0.2500001265    0.2677310000 T T T
    0.3333350000    0.2500006330    0.2677280000 T T T
    0.5000010000    0.2499992225    0.2677300000 T T T
    0.6666670000    0.2500000545    0.2677280000 T T T
    0.8333360000    0.2500002715    0.2677300000 T T T
    0.0833404000    0.3749997920    0.2705910000 T T T
    0.2500090000    0.3749995390    0.2705900000 T T T
    0.4166720000    0.3749995750    0.2705980000 T T T
    0.5833320000    0.3749998645    0.2705980000 T T T
    0.7499940000    0.3749999005    0.2705910000 T T T
    0.9166630000    0.3749994305    0.2705900000 T T T
    0.1666670000    0.5000000000    0.2677300000 T T T
    0.3333350000    0.5000000000    0.2677300000 T T T
    0.5000010000    0.5000000000    0.2677300000 T T T
    0.6666670000    0.5000000000    0.2677280000 T T T
    0.8333360000    0.5000000000    0.2677290000 T T T
    0.0833323000    0.6249996020    0.2705980000 T T T
    0.2499940000    0.6249998645    0.2705900000 T T T
    0.4166630000    0.6249997560    0.2705900000 T T T
    0.5833400000    0.6249996835    0.2705900000 T T T
    0.7500100000    0.6249996110    0.2705900000 T T T
    0.9166720000    0.6249996110    0.2705980000 T T T
    0.0000000000    0.7499998370    0.2677300000 T T T
    0.1666670000    0.7500001265    0.2677310000 T T T
    0.3333350000    0.7500006330    0.2677280000 T T T
    0.5000010000    0.7499992225    0.2677300000 T T T
    0.6666670000    0.7500000545    0.2677280000 T T T
    0.8333360000    0.7500002715    0.2677300000 T T T
    0.0833404000    0.8749997920    0.2705910000 T T T
    0.2500090000    0.8749995390    0.2705900000 T T T
    0.4166720000    0.8749995750    0.2705980000 T T T
    0.5833320000    0.8749998645    0.2705980000 T T T
    0.7499940000    0.8749999005    0.2705910000 T T T
    0.9166630000    0.8749994305    0.2705900000 T T T
    0.0833400000    0.0000000000    0.1555430000 F F F
    0.2500070000    0.0000000000    0.1555430000 F F F
    0.4166730000    0.0000000000    0.1555430000 F F F
    0.5833400000    0.0000000000    0.1555430000 F F F
    0.7500070000    0.0000000000    0.1555430000 F F F
    0.9166730000    0.0000000000    0.1555430000 F F F
    0.0000000000    0.1250000000    0.1555430000 F F F
    0.1666670000    0.1250000000    0.1555430000 F F F
    0.3333330000    0.1250000000    0.1555430000 F F F
    0.5000000000    0.1250000000    0.1555430000 F F F
    0.6666670000    0.1250000000    0.1555430000 F F F
    0.8333330000    0.1250000000    0.1555430000 F F F
    0.0833400000    0.2500000000    0.1555430000 F F F
    0.2500070000    0.2500000000    0.1555430000 F F F
    0.4166730000    0.2500000000    0.1555430000 F F F
    0.5833400000    0.2500000000    0.1555430000 F F F
    0.7500070000    0.2500000000    0.1555430000 F F F
    0.9166730000    0.2500000000    0.1555430000 F F F
    0.0000000000    0.3750000090    0.1555430000 F F F
    0.1666670000    0.3750000090    0.1555430000 F F F
    0.3333330000    0.3750000090    0.1555430000 F F F
    0.5000000000    0.3750000090    0.1555430000 F F F
    0.6666670000    0.3750000090    0.1555430000 F F F
    0.8333330000    0.3750000090    0.1555430000 F F F
    0.0833400000    0.5000000000    0.1555430000 F F F
    0.2500070000    0.5000000000    0.1555430000 F F F
    0.4166730000    0.5000000000    0.1555430000 F F F
    0.5833400000    0.5000000000    0.1555430000 F F F
    0.7500070000    0.5000000000    0.1555430000 F F F
    0.9166730000    0.5000000000    0.1555430000 F F F
    0.0000000000    0.6250000000    0.1555430000 F F F
    0.1666670000    0.6250000000    0.1555430000 F F F
    0.3333330000    0.6250000000    0.1555430000 F F F
    0.5000000000    0.6250000000    0.1555430000 F F F
    0.6666670000    0.6250000000    0.1555430000 F F F
    0.8333330000    0.6250000000    0.1555430000 F F F
    0.0833400000    0.7500000000    0.1555430000 F F F
    0.2500070000    0.7500000000    0.1555430000 F F F
    0.4166730000    0.7500000000    0.1555430000 F F F
    0.5833400000    0.7500000000    0.1555430000 F F F
    0.7500070000    0.7500000000    0.1555430000 F F F
    0.9166730000    0.7500000000    0.1555430000 F F F
    0.0000000000    0.8750000090    0.1555430000 F F F
    0.1666670000    0.8750000090    0.1555430000 F F F
    0.3333330000    0.8750000090    0.1555430000 F F F
    0.5000000000    0.8750000090    0.1555430000 F F F
    0.6666670000    0.8750000090    0.1555430000 F F F
    0.8333330000    0.8750000090    0.1555430000 F F F
    0.0000000000    0.0000000000    0.0437417000 F F F
    0.1666670000    0.0000000000    0.0437417000 F F F
    0.3333330000    0.0000000000    0.0437417000 F F F
    0.5000000000    0.0000000000    0.0437417000 F F F
    0.6666670000    0.0000000000    0.0437417000 F F F
    0.8333330000    0.0000000000    0.0437417000 F F F
    0.0833400000    0.1250000000    0.0437417000 F F F
    0.2500070000    0.1250000000    0.0437417000 F F F
    0.4166730000    0.1250000000    0.0437417000 F F F
    0.5833400000    0.1250000000    0.0437417000 F F F
    0.7500070000    0.1250000000    0.0437417000 F F F
    0.9166730000    0.1250000000    0.0437417000 F F F
    0.0000000000    0.2500000000    0.0437417000 F F F
    0.1666670000    0.2500000000    0.0437417000 F F F
    0.3333330000    0.2500000000    0.0437417000 F F F
    0.5000000000    0.2500000000    0.0437417000 F F F
    0.6666670000    0.2500000000    0.0437417000 F F F
    0.8333330000    0.2500000000    0.0437417000 F F F
    0.0833400000    0.3750000090    0.0437417000 F F F
    0.2500070000    0.3750000090    0.0437417000 F F F
    0.4166730000    0.3750000090    0.0437417000 F F F
    0.5833400000    0.3750000090    0.0437417000 F F F
    0.7500070000    0.3750000090    0.0437417000 F F F
    0.9166730000    0.3750000090    0.0437417000 F F F
    0.0000000000    0.5000000000    0.0437417000 F F F
    0.1666670000    0.5000000000    0.0437417000 F F F
    0.3333330000    0.5000000000    0.0437417000 F F F
    0.5000000000    0.5000000000    0.0437417000 F F F
    0.6666670000    0.5000000000    0.0437417000 F F F
    0.8333330000    0.5000000000    0.0437417000 F F F
    0.0833400000    0.6250000000    0.0437417000 F F F
    0.2500070000    0.6250000000    0.0437417000 F F F
    0.4166730000    0.6250000000    0.0437417000 F F F
    0.5833400000    0.6250000000    0.0437417000 F F F
    0.7500070000    0.6250000000    0.0437417000 F F F
    0.9166730000    0.6250000000    0.0437417000 F F F
    0.0000000000    0.7500000000    0.0437417000 F F F
    0.1666670000    0.7500000000    0.0437417000 F F F
    0.3333330000    0.7500000000    0.0437417000 F F F
    0.5000000000    0.7500000000    0.0437417000 F F F
    0.6666670000    0.7500000000    0.0437417000 F F F
    0.8333330000    0.7500000000    0.0437417000 F F F
    0.0833400000    0.8750000090    0.0437417000 F F F
    0.2500070000    0.8750000090    0.0437417000 F F F
    0.4166730000    0.8750000090    0.0437417000 F F F
    0.5833400000    0.8750000090    0.0437417000 F F F
    0.7500070000    0.8750000090    0.0437417000 F F F
    0.9166730000    0.8750000090    0.0437417000 F F F
    0.0000000000    0.1249992315    0.5422850000 T T T
    0.1666970000    0.1249996925    0.5422780000 T T T
    0.3333370000    0.1249998370    0.5422510000 T T T
    0.5000000000    0.1249996020    0.5422450000 T T T
    0.6666640000    0.1249990685    0.5422520000 T T T
    0.8333040000    0.1249991770    0.5422780000 T T T
    0.0000000000    0.3749994305    0.5422450000 T T T
    0.1666650000    0.3749996835    0.5422520000 T T T
    0.3333040000    0.3749996110    0.5422790000 T T T
    0.5000000000    0.3749992495    0.5422860000 T T T
    0.6666960000    0.3749992495    0.5422790000 T T T
    0.8333350000    0.3749990325    0.5422520000 T T T
    0.0000000000    0.6249992315    0.5422850000 T T T
    0.1666970000    0.6249996925    0.5422780000 T T T
    0.3333370000    0.6249998370    0.5422510000 T T T
    0.5000000000    0.6249996020    0.5422450000 T T T
    0.6666640000    0.6249990685    0.5422520000 T T T
    0.8333040000    0.6249991770    0.5422780000 T T T
    0.0000000000    0.8749994305    0.5422450000 T T T
    0.1666650000    0.8749996835    0.5422520000 T T T
    0.3333040000    0.8749996110    0.5422790000 T T T
    0.5000000000    0.8749992495    0.5422860000 T T T
    0.6666960000    0.8749992495    0.5422790000 T T T
    0.8333350000    0.8749990325    0.5422520000 T T T
    0.0833266000    0.9529821740    0.5019750000 T T T
    0.2499990000    0.9529847780    0.5019920000 T T T
    0.4166660000    0.9529872740    0.5020370000 T T T
    0.5833330000    0.9529870930    0.5020390000 T T T
    0.7500000000    0.9529838015    0.5019920000 T T T
    0.9166730000    0.9529818120    0.5019750000 T T T
    0.0833344000    0.0470110080    0.5020370000 T T T
    0.2500020000    0.0470137390    0.5019920000 T T T
    0.4166740000    0.0470168720    0.5019760000 T T T
    0.5833260000    0.0470168360    0.5019760000 T T T
    0.7499970000    0.0470130110    0.5019910000 T T T
    0.9166650000    0.0470106460    0.5020360000 T T T
    0.0833349000    0.2029875995    0.5020370000 T T T
    0.2500020000    0.2029847240    0.5019910000 T T T
    0.4166730000    0.2029816495    0.5019750000 T T T
    0.5833260000    0.2029811970    0.5019750000 T T T
    0.7499970000    0.2029842355    0.5019910000 T T T
    0.9166650000    0.2029873465    0.5020360000 T T T
    0.0833264000    0.2970165060    0.5019760000 T T T
    0.2499990000    0.2970136665    0.5019920000 T T T
    0.4166660000    0.2970112610    0.5020370000 T T T
    0.5833340000    0.2970108630    0.5020390000 T T T
    0.7500000000    0.2970133410    0.5019920000 T T T
    0.9166720000    0.2970161805    0.5019760000 T T T
    0.0833266000    0.4529821740    0.5019750000 T T T
    0.2499990000    0.4529847780    0.5019920000 T T T
    0.4166660000    0.4529872740    0.5020370000 T T T
    0.5833330000    0.4529870930    0.5020390000 T T T
    0.7500000000    0.4529838015    0.5019920000 T T T
    0.9166730000    0.4529818120    0.5019750000 T T T
    0.0833344000    0.5470110080    0.5020370000 T T T
    0.2500020000    0.5470137390    0.5019920000 T T T
    0.4166740000    0.5470168720    0.5019760000 T T T
    0.5833260000    0.5470168360    0.5019760000 T T T
    0.7499970000    0.5470130110    0.5019910000 T T T
    0.9166650000    0.5470106460    0.5020360000 T T T
    0.0833349000    0.7029875995    0.5020370000 T T T
    0.2500020000    0.7029847240    0.5019910000 T T T
    0.4166730000    0.7029816495    0.5019750000 T T T
    0.5833260000    0.7029811970    0.5019750000 T T T
    0.7499970000    0.7029842355    0.5019910000 T T T
    0.9166650000    0.7029873465    0.5020360000 T T T
    0.0833264000    0.7970165060    0.5019760000 T T T
    0.2499990000    0.7970136665    0.5019920000 T T T
    0.4166660000    0.7970112610    0.5020370000 T T T
    0.5833340000    0.7970108630    0.5020390000 T T T
    0.7500000000    0.7970133410    0.5019920000 T T T
    0.9166720000    0.7970161805    0.5019760000 T T T
    0.0000000000    0.1249991770    0.4529750000 T T T
    0.1666530000    0.1249991950    0.4529590000 T T T
    0.3333150000    0.1249985440    0.4529410000 T T T
    0.5000010000    0.1249990955    0.4529460000 T T T
    0.6666850000    0.1249982910    0.4529410000 T T T
    0.8333480000    0.1249991230    0.4529580000 T T T
    0.0000000000    0.3749991045    0.4529460000 T T T
    0.1666870000    0.3749986705    0.4529420000 T T T
    0.3333480000    0.3749992135    0.4529600000 T T T
    0.5000000000    0.3749992135    0.4529760000 T T T
    0.6666510000    0.3749991045    0.4529600000 T T T
    0.8333140000    0.3749976215    0.4529410000 T T T
    0.0000000000    0.6249991770    0.4529750000 T T T
    0.1666530000    0.6249991950    0.4529590000 T T T
    0.3333150000    0.6249985440    0.4529410000 T T T
    0.5000010000    0.6249990955    0.4529460000 T T T
    0.6666850000    0.6249982910    0.4529410000 T T T
    0.8333480000    0.6249991230    0.4529580000 T T T
    0.0000000000    0.8749991045    0.4529460000 T T T
    0.1666870000    0.8749986705    0.4529420000 T T T
    0.3333480000    0.8749992135    0.4529600000 T T T
    0.5000000000    0.8749992135    0.4529760000 T T T
    0.6666510000    0.8749991045    0.4529600000 T T T
    0.8333140000    0.8749976215    0.4529410000 T T T
    0.0000000000    0.0000199650    0.4270320000 T T T
    0.1666720000    0.0000065440    0.4270370000 T T T
    0.3333280000    0.9999930190    0.4270370000 T T T
    0.5000000000    0.9999762710    0.4270340000 T T T
    0.6666710000    0.9999924760    0.4270380000 T T T
    0.8333270000    0.0000056775    0.4270370000 T T T
    0.0000000000    0.2499761805    0.4270330000 T T T
    0.1666720000    0.2499927115    0.4270370000 T T T
    0.3333280000    0.2500063120    0.4270370000 T T T
    0.5000000000    0.2500228065    0.4270330000 T T T
    0.6666710000    0.2500061130    0.4270370000 T T T
    0.8333280000    0.2499928560    0.4270370000 T T T
    0.0000000000    0.5000199650    0.4270320000 T T T
    0.1666720000    0.5000065440    0.4270370000 T T T
    0.3333280000    0.4999930190    0.4270370000 T T T
    0.5000000000    0.4999762710    0.4270340000 T T T
    0.6666710000    0.4999924760    0.4270380000 T T T
    0.8333270000    0.5000056775    0.4270370000 T T T
    0.0000000000    0.7499761805    0.4270330000 T T T
    0.1666720000    0.7499927115    0.4270370000 T T T
    0.3333280000    0.7500063120    0.4270370000 T T T
    0.5000000000    0.7500228065    0.4270330000 T T T
    0.6666710000    0.7500061130    0.4270370000 T T T
    0.8333280000    0.7499928560    0.4270370000 T T T
    0.0833258000    0.0750968295    0.3836950000 T T T
    0.2500000000    0.0751019705    0.3837050000 T T T
    0.4166790000    0.0750934610    0.3836920000 T T T
    0.5833210000    0.0750933525    0.3836920000 T T T
    0.7500000000    0.0751016225    0.3837060000 T T T
    0.9166740000    0.0750965495    0.3836950000 T T T
    0.0833258000    0.1749020805    0.3836950000 T T T
    0.2500000000    0.1748971430    0.3837050000 T T T
    0.4166790000    0.1749052640    0.3836920000 T T T
    0.5833220000    0.1749051915    0.3836930000 T T T
    0.7500000000    0.1748968900    0.3837060000 T T T
    0.9166740000    0.1749019900    0.3836950000 T T T
    0.0833224000    0.3250935605    0.3836920000 T T T
    0.2500010000    0.3251020250    0.3837060000 T T T
    0.4166740000    0.3250967075    0.3836950000 T T T
    0.5833260000    0.3250964545    0.3836950000 T T T
    0.7499990000    0.3251016270    0.3837060000 T T T
    0.9166790000    0.3250933800    0.3836920000 T T T
    0.0833221000    0.4249050830    0.3836930000 T T T
    0.2500010000    0.4248969080    0.3837060000 T T T
    0.4166750000    0.4249021530    0.3836960000 T T T
    0.5833260000    0.4249021530    0.3836960000 T T T
    0.7499990000    0.4248967270    0.3837060000 T T T
    0.9166790000    0.4249049745    0.3836920000 T T T
    0.0833258000    0.5750968295    0.3836950000 T T T
    0.2500000000    0.5751019705    0.3837050000 T T T
    0.4166790000    0.5750934610    0.3836920000 T T T
    0.5833210000    0.5750933525    0.3836920000 T T T
    0.7500000000    0.5751016225    0.3837060000 T T T
    0.9166740000    0.5750965495    0.3836950000 T T T
    0.0833258000    0.6749020805    0.3836950000 T T T
    0.2500000000    0.6748971430    0.3837050000 T T T
    0.4166790000    0.6749052640    0.3836920000 T T T
    0.5833220000    0.6749051915    0.3836930000 T T T
    0.7500000000    0.6748968900    0.3837060000 T T T
    0.9166740000    0.6749019900    0.3836950000 T T T
    0.0833224000    0.8250935605    0.3836920000 T T T
    0.2500010000    0.8251020250    0.3837060000 T T T
    0.4166740000    0.8250967075    0.3836950000 T T T
    0.5833260000    0.8250964545    0.3836950000 T T T
    0.7499990000    0.8251016270    0.3837060000 T T T
    0.9166790000    0.8250933800    0.3836920000 T T T
    0.0833221000    0.9249050830    0.3836930000 T T T
    0.2500010000    0.9248969080    0.3837060000 T T T
    0.4166750000    0.9249021530    0.3836960000 T T T
    0.5833260000    0.9249021530    0.3836960000 T T T
    0.7499990000    0.9248967270    0.3837060000 T T T
    0.9166790000    0.9249049745    0.3836920000 T T T
    0.0000000000    0.0000000000    0.3375910000 T T T
    0.1666740000    0.0000006510    0.3375930000 T T T
    0.3333270000    0.9999984810    0.3375930000 T T T
    0.5000000000    0.9999981915    0.3375910000 T T T
    0.6666730000    0.9999980830    0.3375930000 T T T
    0.8333260000    0.0000000000    0.3375930000 T T T
    0.0000000000    0.2499982275    0.3375910000 T T T
    0.1666740000    0.2499981915    0.3375930000 T T T
    0.3333270000    0.2500005065    0.3375930000 T T T
    0.5000000000    0.2500005065    0.3375910000 T T T
    0.6666730000    0.2500006330    0.3375930000 T T T
    0.8333260000    0.2499985895    0.3375930000 T T T
    0.0000000000    0.5000000000    0.3375910000 T T T
    0.1666740000    0.5000006510    0.3375930000 T T T
    0.3333270000    0.4999984810    0.3375930000 T T T
    0.5000000000    0.4999981915    0.3375910000 T T T
    0.6666730000    0.4999980830    0.3375930000 T T T
    0.8333260000    0.5000000000    0.3375930000 T T T
    0.0000000000    0.7499982275    0.3375910000 T T T
    0.1666740000    0.7499981915    0.3375930000 T T T
    0.3333270000    0.7500005065    0.3375930000 T T T
    0.5000000000    0.7500005065    0.3375910000 T T T
    0.6666730000    0.7500006330    0.3375930000 T T T
    0.8333260000    0.7499985895    0.3375930000 T T T
    0.0000000000    0.1249997650    0.3149890000 T T T
    0.1666700000    0.1249998100    0.3149930000 T T T
    0.3333300000    0.1249997830    0.3149910000 T T T
    0.5000010000    0.1249998645    0.3149870000 T T T
    0.6666720000    0.1249997285    0.3149910000 T T T
    0.8333310000    0.1249998190    0.3149940000 T T T
    0.0000000000    0.3749998645    0.3149870000 T T T
    0.1666730000    0.3749998645    0.3149910000 T T T
    0.3333320000    0.3749997560    0.3149940000 T T T
    0.5000010000    0.3749997560    0.3149900000 T T T
    0.6666700000    0.3749997195    0.3149940000 T T T
    0.8333290000    0.3749997195    0.3149910000 T T T
    0.0000000000    0.6249997650    0.3149890000 T T T
    0.1666700000    0.6249998100    0.3149930000 T T T
    0.3333300000    0.6249997830    0.3149910000 T T T
    0.5000010000    0.6249998645    0.3149870000 T T T
    0.6666720000    0.6249997285    0.3149910000 T T T
    0.8333310000    0.6249998190    0.3149940000 T T T
    0.0000000000    0.8749998645    0.3149870000 T T T
    0.1666730000    0.8749998645    0.3149910000 T T T
    0.3333320000    0.8749997560    0.3149940000 T T T
    0.5000010000    0.8749997560    0.3149900000 T T T
    0.6666700000    0.8749997195    0.3149940000 T T T
    0.8333290000    0.8749997195    0.3149910000 T T T
    0.0833321000    0.9514119480    0.2689360000 T T T
    0.2500050000    0.9514146610    0.2689350000 T T T
    0.4166680000    0.9514139015    0.2689380000 T T T
    0.5833380000    0.9514137205    0.2689370000 T T T
    0.7499970000    0.9514146610    0.2689350000 T T T
    0.9166690000    0.9514121290    0.2689350000 T T T
    0.0833375000    0.0485856825    0.2689370000 T T T
    0.2499980000    0.0485849640    0.2689360000 T T T
    0.4166710000    0.0485873645    0.2689360000 T T T
    0.5833320000    0.0485879390    0.2689360000 T T T
    0.7500030000    0.0485850770    0.2689350000 T T T
    0.9166680000    0.0485853980    0.2689380000 T T T
    0.0833377000    0.2014136300    0.2689370000 T T T
    0.2499990000    0.2014146610    0.2689350000 T T T
    0.4166690000    0.2014122375    0.2689350000 T T T
    0.5833320000    0.2014116950    0.2689360000 T T T
    0.7500040000    0.2014145885    0.2689350000 T T T
    0.9166680000    0.2014138830    0.2689380000 T T T
    0.0833320000    0.2985876180    0.2689360000 T T T
    0.2500040000    0.2985849955    0.2689360000 T T T
    0.4166680000    0.2985855560    0.2689380000 T T T
    0.5833370000    0.2985857190    0.2689380000 T T T
    0.7499980000    0.2985849595    0.2689360000 T T T
    0.9166710000    0.2985872020    0.2689360000 T T T
    0.0833321000    0.4514119480    0.2689360000 T T T
    0.2500050000    0.4514146610    0.2689350000 T T T
    0.4166680000    0.4514139015    0.2689380000 T T T
    0.5833380000    0.4514137205    0.2689370000 T T T
    0.7499970000    0.4514146610    0.2689350000 T T T
    0.9166690000    0.4514121290    0.2689350000 T T T
    0.0833375000    0.5485856825    0.2689370000 T T T
    0.2499980000    0.5485849640    0.2689360000 T T T
    0.4166710000    0.5485873645    0.2689360000 T T T
    0.5833320000    0.5485879390    0.2689360000 T T T
    0.7500030000    0.5485850770    0.2689350000 T T T
    0.9166680000    0.5485853980    0.2689380000 T T T
    0.0833377000    0.7014136300    0.2689370000 T T T
    0.2499990000    0.7014146610    0.2689350000 T T T
    0.4166690000    0.7014122375    0.2689350000 T T T
    0.5833320000    0.7014116950    0.2689360000 T T T
    0.7500040000    0.7014145885    0.2689350000 T T T
    0.9166680000    0.7014138830    0.2689380000 T T T
    0.0833320000    0.7985876180    0.2689360000 T T T
    0.2500040000    0.7985849955    0.2689360000 T T T
    0.4166680000    0.7985855560    0.2689380000 T T T
    0.5833370000    0.7985857190    0.2689380000 T T T
    0.7499980000    0.7985849595    0.2689360000 T T T
    0.9166710000    0.7985872020    0.2689360000 T T T
    0.0000000000    0.1249999095    0.2254220000 T T T
    0.1666700000    0.1249997380    0.2254190000 T T T
    0.3333280000    0.1249998100    0.2254180000 T T T
    0.5000000000    0.1249998555    0.2254230000 T T T
    0.6666750000    0.1249997650    0.2254180000 T T T
    0.8333330000    0.1249999365    0.2254190000 T T T
    0.0000000000    0.3749999005    0.2254220000 T T T
    0.1666750000    0.3749999005    0.2254180000 T T T
    0.3333340000    0.3749997195    0.2254200000 T T T
    0.5000010000    0.3749999005    0.2254220000 T T T
    0.6666700000    0.3749997560    0.2254190000 T T T
    0.8333270000    0.3749997195    0.2254180000 T T T
    0.0000000000    0.6249999095    0.2254220000 T T T
    0.1666700000    0.6249997380    0.2254190000 T T T
    0.3333280000    0.6249998100    0.2254180000 T T T
    0.5000000000    0.6249998555    0.2254230000 T T T
    0.6666750000    0.6249997650    0.2254180000 T T T
    0.8333330000    0.6249999365    0.2254190000 T T T
    0.0000000000    0.8749999005    0.2254220000 T T T
    0.1666750000    0.8749999005    0.2254180000 T T T
    0.3333340000    0.8749997195    0.2254200000 T T T
    0.5000010000    0.8749999005    0.2254220000 T T T
    0.6666700000    0.8749997560    0.2254190000 T T T
    0.8333270000    0.8749997195    0.2254180000 T T T
    0.0000000000    0.0000000000    0.1991850000 F F F
    0.1666670000    0.0000000000    0.1991850000 F F F
    0.3333330000    0.0000000000    0.1991850000 F F F
    0.5000000000    0.0000000000    0.1991850000 F F F
    0.6666670000    0.0000000000    0.1991850000 F F F
    0.8333330000    0.0000000000    0.1991850000 F F F
    0.0000000000    0.2500000000    0.1991850000 F F F
    0.1666670000    0.2500000000    0.1991850000 F F F
    0.3333330000    0.2500000000    0.1991850000 F F F
    0.5000000000    0.2500000000    0.1991850000 F F F
    0.6666670000    0.2500000000    0.1991850000 F F F
    0.8333330000    0.2500000000    0.1991850000 F F F
    0.0000000000    0.5000000000    0.1991850000 F F F