Defect-free TiO2 slab 12x2
    1.0000000000
   35.6161308289    0.0000000000    0.0000000000
    0.0000000000   13.1824998856    0.0000000000
    0.0000000000    0.0000000000   29.4789047241
Ti    O
         240         480
Selective dynamics
Direct
    0.9583282060    0.2499973230    0.5029872010 T T T
    0.0416718980    0.2499983540    0.5029874600 T T T
    0.1250014190    0.2499984990    0.5029459540 T T T
    0.2083327710    0.2499982280    0.5029379630 T T T
    0.2916667870    0.2499976670    0.5029375420 T T T
    0.3749985140    0.2499969250    0.5029457920 T T T
    0.4583282590    0.2499973230    0.5029872010 T T T
    0.5416718480    0.2499983540    0.5029874600 T T T
    0.6250014060    0.2499984990    0.5029459540 T T T
    0.7083327840    0.2499982280    0.5029379630 T T T
    0.7916667340    0.2499976670    0.5029375420 T T T
    0.8749984870    0.2499969250    0.5029457920 T T T
    0.9583336680    0.7499972690    0.5029378660 T T T
    0.0416662950    0.7499980650    0.5029380920 T T T
    0.1249974290    0.7499982090    0.5029468600 T T T
    0.2083271750    0.7499980650    0.5029885920 T T T
    0.2916720890    0.7499972690    0.5029888840 T T T
    0.3750026110    0.7499965460    0.5029466010 T T T
    0.4583336680    0.7499972690    0.5029378660 T T T
    0.5416662780    0.7499980650    0.5029380920 T T T
    0.6249974430    0.7499982090    0.5029468600 T T T
    0.7083271610    0.7499980650    0.5029885920 T T T
    0.7916720890    0.7499972690    0.5029888840 T T T
    0.8750026110    0.7499965460    0.5029466010 T T T
    0.0000000000    0.0000164850    0.4912406870 T T T
    0.0833319340    0.9999984080    0.4912448600 T T T
    0.1666668670    0.9999986250    0.4912454430 T T T
    0.2499995180    0.9999809010    0.4912423050 T T T
    0.3333326370    0.9999972510    0.4912457660 T T T
    0.4166678180    0.9999966000    0.4912451520 T T T
    0.4999997860    0.0000164850    0.4912406870 T T T
    0.5833319680    0.9999984080    0.4912448600 T T T
    0.6666668810    0.9999986250    0.4912454430 T T T
    0.7499995450    0.9999809010    0.4912423050 T T T
    0.8333326370    0.9999972510    0.4912457660 T T T
    0.9166678720    0.9999966000    0.4912451520 T T T
    0.0000000000    0.4999809370    0.4912413340 T T T
    0.0833319340    0.4999985170    0.4912451840 T T T
    0.1666668810    0.4999985170    0.4912451190 T T T
    0.2499994640    0.5000166390    0.4912413660 T T T
    0.3333325570    0.4999977210    0.4912455720 T T T
    0.4166678450    0.4999979740    0.4912452160 T T T
    0.4999997860    0.4999809370    0.4912413340 T T T
    0.5833319680    0.4999985170    0.4912451840 T T T
    0.6666668810    0.4999985170    0.4912451190 T T T
    0.7499994380    0.5000166390    0.4912413660 T T T
    0.8333325300    0.4999977210    0.4912455720 T T T
    0.9166678720    0.4999979740    0.4912452160 T T T
    0.0000000000    0.2499987700    0.3870052580 T T T
    0.0833293170    0.2499989150    0.3869847480 T T T
    0.1666670010    0.2499987340    0.3869694780 T T T
    0.2499997320    0.2499985170    0.3869677960 T T T
    0.3333327170    0.2499981190    0.3869688960 T T T
    0.4166704150    0.2499982280    0.3869841010 T T T
    0.4999998930    0.2499987700    0.3870052580 T T T
    0.5833293440    0.2499989150    0.3869847480 T T T
    0.6666669880    0.2499987340    0.3869694780 T T T
    0.7499997590    0.2499985170    0.3869677960 T T T
    0.8333326910    0.2499981190    0.3869688960 T T T
    0.9166704420    0.2499982280    0.3869841010 T T T
   -0.0000000000    0.7499984270    0.3869685070 T T T
    0.0833323760    0.7499984990    0.3869707070 T T T
    0.1666699470    0.7499987160    0.3869855560 T T T
    0.2500000270    0.7499983540    0.3870059700 T T T
    0.3333300400    0.7499982090    0.3869851030 T T T
    0.4166677650    0.7499977030    0.3869697690 T T T
    0.5000000000    0.7499984270    0.3869685070 T T T
    0.5833323430    0.7499984990    0.3869707070 T T T
    0.6666699870    0.7499987160    0.3869855560 T T T
    0.7499999730    0.7499983540    0.3870059700 T T T
    0.8333300130    0.7499982090    0.3869851030 T T T
    0.9166677650    0.7499977030    0.3869697690 T T T
    0.9583322760    0.9999988420    0.3802101410 T T T
    0.0416674800    0.0000000000    0.3802099470 T T T
    0.1249998260    0.9999984080    0.3802116610 T T T
    0.2083322220    0.9999979020    0.3802102380 T T T
    0.2916676710    0.9999978300    0.3802102060 T T T
    0.3750001470    0.9999984810    0.3802119530 T T T
    0.4583323290    0.9999988420    0.3802101410 T T T
    0.5416674570    0.0000000000    0.3802099470 T T T
    0.6249997990    0.9999984080    0.3802116610 T T T
    0.7083322490    0.9999979020    0.3802102380 T T T
    0.7916676980    0.9999978300    0.3802102060 T T T
    0.8750000940    0.9999984810    0.3802119530 T T T
    0.9583322760    0.4999976850    0.3802101090 T T T
    0.0416674360    0.4999981910    0.3802102700 T T T
    0.1249996520    0.4999990600    0.3802117910 T T T
    0.2083320480    0.4999992400    0.3802098170 T T T
    0.2916677510    0.4999988060    0.3802100120 T T T
    0.3750002810    0.4999978660    0.3802119200 T T T
    0.4583323290    0.4999976850    0.3802101090 T T T
    0.5416674570    0.4999981910    0.3802102700 T T T
    0.6249996390    0.4999990600    0.3802117910 T T T
    0.7083320880    0.4999992400    0.3802098170 T T T
    0.7916677510    0.4999988060    0.3802100120 T T T
    0.8750002540    0.4999978660    0.3802119200 T T T
   -0.0000000000    0.9999982640    0.2676302530 T T T
    0.0833336610   -0.0000000000    0.2676296220 T T T
    0.1666677240    0.0000000000    0.2676301240 T T T
    0.2500007500    0.0000000000    0.2676297360 T T T
    0.3333336810    0.0000000000    0.2676276810 T T T
    0.4166677650    0.0000000000    0.2676288140 T T T
    0.5000006430    0.9999982640    0.2676302530 T T T
    0.5833336810   -0.0000000000    0.2676296220 T T T
    0.6666676840    0.0000000000    0.2676301240 T T T
    0.7500007230    0.0000000000    0.2676297360 T T T
    0.8333336550    0.0000000000    0.2676276810 T T T
    0.9166677650    0.0000000000    0.2676288140 T T T
    0.9583359170    0.2499992220    0.2704975940 T T T
    0.0416661280    0.2499992040    0.2704979170 T T T
    0.1249968940    0.2499997290    0.2704904600 T T T
    0.2083314860    0.2499995120    0.2704896680 T T T
    0.2916700270    0.2499993670    0.2704903800 T T T
    0.3750048060    0.2499992220    0.2704901050 T T T
    0.4583359170    0.2499992220    0.2704975940 T T T
    0.5416661710    0.2499992040    0.2704979170 T T T
    0.6249969070    0.2499997290    0.2704904600 T T T
    0.7083314460    0.2499995120    0.2704896680 T T T
    0.7916700000    0.2499993670    0.2704903800 T T T
    0.8750047530    0.2499992220    0.2704901050 T T T
    0.0000000000    0.4999996740    0.2676301880 T T T
    0.0833334470    0.5000002530    0.2676305770 T T T
    0.1666672560    0.5000012660    0.2676283770 T T T
    0.2500003210    0.4999984450    0.2676297680 T T T
    0.3333337350    0.5000001090    0.2676277140 T T T
    0.4166679790    0.5000005430    0.2676303990 T T T
    0.5000006960    0.4999996740    0.2676301880 T T T
    0.5833334140    0.5000002530    0.2676305770 T T T
    0.6666672020    0.5000012660    0.2676283770 T T T
    0.7500003480    0.4999984450    0.2676297680 T T T
    0.8333337080    0.5000001090    0.2676277140 T T T
    0.9166679790    0.5000005430    0.2676303990 T T T
    0.9583317400    0.7499988610    0.2704902660 T T T
    0.0416701980    0.7499995840    0.2704905570 T T T
    0.1250047390    0.7499990780    0.2704903800 T T T
    0.2083360910    0.7499991500    0.2704982730 T T T
    0.2916661980    0.7499997290    0.2704982090 T T T
    0.3749969070    0.7499998010    0.2704905570 T T T
    0.4583317400    0.7499988610    0.2704902660 T T T
    0.5416701880    0.7499995840    0.2704905570 T T T
    0.6250047800    0.7499990780    0.2704903800 T T T
    0.7083361050    0.7499991500    0.2704982730 T T T
    0.7916661980    0.7499997290    0.2704982090 T T T
    0.8749968810    0.7499998010    0.2704905570 T T T
    0.9583366670   -0.0000000000    0.1554430910 F F F
    0.0416699940   -0.0000000000    0.1554430910 F F F
    0.1250033200   -0.0000000000    0.1554430910 F F F
    0.2083366670   -0.0000000000    0.1554430910 F F F
    0.2916700000   -0.0000000000    0.1554430910 F F F
    0.3750033340   -0.0000000000    0.1554430910 F F F
    0.4583366670   -0.0000000000    0.1554430910 F F F
    0.5416699740   -0.0000000000    0.1554430910 F F F
    0.6250033340   -0.0000000000    0.1554430910 F F F
    0.7083366400   -0.0000000000    0.1554430910 F F F
    0.7916699470   -0.0000000000    0.1554430910 F F F
    0.8750033600   -0.0000000000    0.1554430910 F F F
    0.0000000000    0.2500000000    0.1554430910 F F F
    0.0833333330    0.2500000000    0.1554430910 F F F
    0.1666666670    0.2500000000    0.1554430910 F F F
    0.2500000000    0.2500000000    0.1554430910 F F F
    0.3333333330    0.2500000000    0.1554430910 F F F
    0.4166666670    0.2500000000    0.1554430910 F F F
    0.5000000000    0.2500000000    0.1554430910 F F F
    0.5833333070    0.2500000000    0.1554430910 F F F
    0.6666666670    0.2500000000    0.1554430910 F F F
    0.7499999730    0.2500000000    0.1554430910 F F F
    0.8333333870    0.2500000000    0.1554430910 F F F
    0.9166665860    0.2500000000    0.1554430910 F F F
    0.9583366670    0.5000000000    0.1554430910 F F F
    0.0416699940    0.5000000000    0.1554430910 F F F
    0.1250033200    0.5000000000    0.1554430910 F F F
    0.2083366670    0.5000000000    0.1554430910 F F F
    0.2916700000    0.5000000000    0.1554430910 F F F
    0.3750033340    0.5000000000    0.1554430910 F F F
    0.4583366670    0.5000000000    0.1554430910 F F F
    0.5416699740    0.5000000000    0.1554430910 F F F
    0.6250033340    0.5000000000    0.1554430910 F F F
    0.7083366400    0.5000000000    0.1554430910 F F F
    0.7916699470    0.5000000000    0.1554430910 F F F
    0.8750033600    0.5000000000    0.1554430910 F F F
   -0.0000000000    0.7500000180    0.1554430910 F F F
    0.0833333330    0.7500000180    0.1554430910 F F F
    0.1666666670    0.7500000180    0.1554430910 F F F
    0.2500000000    0.7500000180    0.1554430910 F F F
    0.3333333330    0.7500000180    0.1554430910 F F F
    0.4166666670    0.7500000180    0.1554430910 F F F
    0.5000000000    0.7500000180    0.1554430910 F F F
    0.5833333070    0.7500000180    0.1554430910 F F F
    0.6666666670    0.7500000180    0.1554430910 F F F
    0.7499999730    0.7500000180    0.1554430910 F F F
    0.8333333870    0.7500000180    0.1554430910 F F F
    0.9166665860    0.7500000180    0.1554430910 F F F
    0.0000000000    0.0000000000    0.0436417480 F F F
    0.0833333330    0.0000000000    0.0436417480 F F F
    0.1666666670    0.0000000000    0.0436417480 F F F
    0.2500000000    0.0000000000    0.0436417480 F F F
    0.3333333330    0.0000000000    0.0436417480 F F F
    0.4166666670    0.0000000000    0.0436417480 F F F
    0.5000000000    0.0000000000    0.0436417480 F F F
    0.5833333070    0.0000000000    0.0436417480 F F F
    0.6666666670    0.0000000000    0.0436417480 F F F
    0.7499999730    0.0000000000    0.0436417480 F F F
    0.8333333870    0.0000000000    0.0436417480 F F F
    0.9166665860    0.0000000000    0.0436417480 F F F
    0.9583366670    0.2500000000    0.0436417480 F F F
    0.0416699940    0.2500000000    0.0436417480 F F F
    0.1250033200    0.2500000000    0.0436417480 F F F
    0.2083366670    0.2500000000    0.0436417480 F F F
    0.2916700000    0.2500000000    0.0436417480 F F F
    0.3750033340    0.2500000000    0.0436417480 F F F
    0.4583366670    0.2500000000    0.0436417480 F F F
    0.5416699740    0.2500000000    0.0436417480 F F F
    0.6250033340    0.2500000000    0.0436417480 F F F
    0.7083366400    0.2500000000    0.0436417480 F F F
    0.7916699470    0.2500000000    0.0436417480 F F F
    0.8750033600    0.2500000000    0.0436417480 F F F
   -0.0000000000    0.5000000000    0.0436417480 F F F
    0.0833333330    0.5000000000    0.0436417480 F F F
    0.1666666670    0.5000000000    0.0436417480 F F F
    0.2500000000    0.5000000000    0.0436417480 F F F
    0.3333333330    0.5000000000    0.0436417480 F F F
    0.4166666670    0.5000000000    0.0436417480 F F F
    0.5000000000    0.5000000000    0.0436417480 F F F
    0.5833333070    0.5000000000    0.0436417480 F F F
    0.6666666670    0.5000000000    0.0436417480 F F F
    0.7499999730    0.5000000000    0.0436417480 F F F
    0.8333333870    0.5000000000    0.0436417480 F F F
    0.9166665860    0.5000000000    0.0436417480 F F F
    0.9583366670    0.7500000180    0.0436417480 F F F
    0.0416699940    0.7500000180    0.0436417480 F F F
    0.1250033200    0.7500000180    0.0436417480 F F F
    0.2083366670    0.7500000180    0.0436417480 F F F
    0.2916700000    0.7500000180    0.0436417480 F F F
    0.3750033340    0.7500000180    0.0436417480 F F F
    0.4583366670    0.7500000180    0.0436417480 F F F
    0.5416699740    0.7500000180    0.0436417480 F F F
    0.6250033340    0.7500000180    0.0436417480 F F F
    0.7083366400    0.7500000180    0.0436417480 F F F
    0.7916699470    0.7500000180    0.0436417480 F F F
    0.8750033600    0.7500000180    0.0436417480 F F F
   -0.0000000000    0.2499984630    0.5421853190 T T T
    0.0833486700    0.2499993850    0.5421780400 T T T
    0.1666684740    0.2499996740    0.5421509620 T T T
    0.2500002410    0.2499992040    0.5421450740 T T T
    0.3333319140    0.2499981370    0.5421518030 T T T
    0.4166519660    0.2499983540    0.5421776840 T T T
    0.5000004820    0.2499984630    0.5421853190 T T T
    0.5833486760    0.2499993850    0.5421780400 T T T
    0.6666684870    0.2499996740    0.5421509620 T T T
    0.7500002410    0.2499992040    0.5421450740 T T T
    0.8333319410    0.2499981370    0.5421518030 T T T
    0.9166519130    0.2499983540    0.5421776840 T T T
    0.0000000000    0.7499988610    0.5421449450 T T T
    0.0833325430    0.7499993670    0.5421517390 T T T
    0.1666520870    0.7499992220    0.5421787520 T T T
    0.2499998930    0.7499984990    0.5421861930 T T T
    0.3333478460    0.7499984990    0.5421788170 T T T
    0.4166672560    0.7499980650    0.5421515770 T T T
    0.5000000000    0.7499988610    0.5421449450 T T T
    0.5833325570    0.7499993670    0.5421517390 T T T
    0.6666521000    0.7499992220    0.5421787520 T T T
    0.7499998660    0.7499984990    0.5421861930 T T T
    0.8333478460    0.7499984990    0.5421788170 T T T
    0.9166672290    0.7499980650    0.5421515770 T T T
    0.9583323830    0.0940212920    0.5019364380 T T T
    0.0416671750    0.0940220160    0.5019368590 T T T
    0.1250010180    0.0940274780    0.5018916000 T T T
    0.2083367870    0.0940337440    0.5018760070 T T T
    0.2916630920    0.0940336720    0.5018756830 T T T
    0.3749987010    0.0940260220    0.5018913730 T T T
    0.4583324360    0.0940212920    0.5019364380 T T T
    0.5416671890    0.0940220160    0.5019368590 T T T
    0.6250010310    0.0940274780    0.5018916000 T T T
    0.7083367470    0.0940337440    0.5018760070 T T T
    0.7916630380    0.0940336720    0.5018756830 T T T
    0.8749987010    0.0940260220    0.5018913730 T T T
    0.9583324900    0.4059746930    0.5019362120 T T T
    0.0416674430    0.4059751990    0.5019365680 T T T
    0.1250010840    0.4059694480    0.5018912120 T T T
    0.2083366800    0.4059632990    0.5018750360 T T T
    0.2916628510    0.4059623940    0.5018751650 T T T
    0.3749986480    0.4059684710    0.5018906620 T T T
    0.4583324900    0.4059746930    0.5019362120 T T T
    0.5416674570    0.4059751990    0.5019365680 T T T
    0.6250010840    0.4059694480    0.5018912120 T T T
    0.7083366940    0.4059632990    0.5018750360 T T T
    0.7916628240    0.4059623940    0.5018751650 T T T
    0.8749987010    0.4059684710    0.5018906620 T T T
    0.9583362390    0.5940323610    0.5018757480 T T T
    0.0416631890    0.5940330120    0.5018755210 T T T
    0.1249994380    0.5940273330    0.5018918590 T T T
    0.2083328780    0.5940225220    0.5019373770 T T T
    0.2916668940    0.5940217260    0.5019392850 T T T
    0.3750000940    0.5940266820    0.5018922140 T T T
    0.4583362390    0.5940323610    0.5018757480 T T T
    0.5416631720    0.5940330120    0.5018755210 T T T
    0.6249994240    0.5940273330    0.5018918590 T T T
    0.7083328920    0.5940225220    0.5019373770 T T T
    0.7916668410    0.5940217260    0.5019392850 T T T
    0.8750000940    0.5940266820    0.5018922140 T T T
    0.9583363460    0.9059636240    0.5018753270 T T T
    0.0416632930    0.9059643480    0.5018749710 T T T
    0.1249994510    0.9059695560    0.5018915670 T T T
    0.2083328920    0.9059745480    0.5019369240 T T T
    0.2916666530    0.9059741860    0.5019390590 T T T
    0.3750001470    0.9059676030    0.5018916000 T T T
    0.4583363990    0.9059636240    0.5018753270 T T T
    0.5416632790    0.9059643480    0.5018749710 T T T
    0.6249994780    0.9059695560    0.5018915670 T T T
    0.7083328920    0.9059745480    0.5019369240 T T T
    0.7916666270    0.9059741860    0.5019390590 T T T
    0.8750000940    0.9059676030    0.5018916000 T T T
    0.0000000000    0.2499983540    0.4528750600 T T T
    0.0833265450    0.2499983900    0.4528592080 T T T
    0.1666575090    0.2499970880    0.4528411560 T T T
    0.2500003210    0.2499981910    0.4528461380 T T T
    0.3333424110    0.2499965820    0.4528412850 T T T
    0.4166739230    0.2499982460    0.4528583990 T T T
    0.5000002140    0.2499983540    0.4528750600 T T T
    0.5833265590    0.2499983900    0.4528592080 T T T
    0.6666575090    0.2499970880    0.4528411560 T T T
    0.7500003480    0.2499981910    0.4528461380 T T T
    0.8333424370    0.2499965820    0.4528412850 T T T
    0.9166738700    0.2499982460    0.4528583990 T T T
    0.0000000000    0.7499982090    0.4528457500 T T T
    0.0833433410    0.7499973410    0.4528421590 T T T
    0.1666738960    0.7499984270    0.4528601780 T T T
    0.2500000800    0.7499984270    0.4528759330 T T T
    0.3333256220    0.7499982090    0.4528603400 T T T
    0.4166568130    0.7499952430    0.4528413820 T T T
    0.5000000000    0.7499982090    0.4528457500 T T T
    0.5833433210    0.7499973410    0.4528421590 T T T
    0.6666738960    0.7499984270    0.4528601780 T T T
    0.7500001340    0.7499984270    0.4528759330 T T T
    0.8333256220    0.7499982090    0.4528603400 T T T
    0.9166568400    0.7499952430    0.4528413820 T T T
    0.0000000000    0.0000399300    0.4269319220 T T T
    0.0833361520    0.0000130880    0.4269368400 T T T
    0.1666640020    0.9999860380    0.4269372600 T T T
    0.2500000270    0.9999525420    0.4269337340 T T T
    0.3333356630    0.9999849520    0.4269377450 T T T
    0.4166636940    0.0000113550    0.4269369040 T T T
    0.5000000000    0.0000399300    0.4269319220 T T T
    0.5833361980    0.0000130880    0.4269368400 T T T
    0.6666639890    0.9999860380    0.4269372600 T T T
    0.7499999730    0.9999525420    0.4269337340 T T T
    0.8333356360    0.9999849520    0.4269377450 T T T
    0.9166636940    0.0000113550    0.4269369040 T T T
    0.0000000000    0.4999523610    0.4269327960 T T T
    0.0833361180    0.4999854230    0.4269370980 T T T
    0.1666641100    0.5000126240    0.4269370340 T T T
    0.2499999200    0.5000456130    0.4269330870 T T T
    0.3333356900    0.5000122260    0.4269374540 T T T
    0.4166637750    0.4999857120    0.4269370340 T T T
    0.4999997860    0.4999523610    0.4269327960 T T T
    0.5833360910    0.4999854230    0.4269370980 T T T
    0.6666641500    0.5000126240    0.4269370340 T T T
    0.7499999200    0.5000456130    0.4269330870 T T T
    0.8333356900    0.5000122260    0.4269374540 T T T
    0.9166638020    0.4999857120    0.4269370340 T T T
    0.9583369880    0.1501930990    0.3835947430 T T T
    0.0416629110    0.1501936590    0.3835947750 T T T
    0.1249997990    0.1502039410    0.3836052570 T T T
    0.2083396660    0.1501869220    0.3835921550 T T T
    0.2916606020    0.1501867050    0.3835923490 T T T
    0.3749998260    0.1502032450    0.3836055480 T T T
    0.4583369880    0.1501930990    0.3835947430 T T T
    0.5416629580    0.1501936590    0.3835947750 T T T
    0.6249997990    0.1502039410    0.3836052570 T T T
    0.7083396930    0.1501869220    0.3835921550 T T T
    0.7916606290    0.1501867050    0.3835923490 T T T
    0.8749998260    0.1502032450    0.3836055480 T T T
    0.9583369880    0.3498039800    0.3835949690 T T T
    0.0416629050    0.3498041610    0.3835950990 T T T
    0.1249999460    0.3497942860    0.3836054840 T T T
    0.2083397200    0.3498105280    0.3835924780 T T T
    0.2916607620    0.3498103830    0.3835926400 T T T
    0.3749997990    0.3497937800    0.3836057100 T T T
    0.4583369350    0.3498039800    0.3835949690 T T T
    0.5416629580    0.3498041610    0.3835950990 T T T
    0.6249999600    0.3497942860    0.3836054840 T T T
    0.7083396930    0.3498105280    0.3835924780 T T T
    0.7916607890    0.3498103830    0.3835926400 T T T
    0.8749997720    0.3497937800    0.3836057100 T T T
    0.9583394520    0.6501867600    0.3835919610 T T T
    0.0416611980    0.6501871210    0.3835923810 T T T
    0.1250006160    0.6502040500    0.3836059360 T T T
    0.2083371620    0.6501934150    0.3835953900 T T T
    0.2916628510    0.6501929090    0.3835952610 T T T
    0.3749993170    0.6502032540    0.3836055480 T T T
    0.4583395050    0.6501867600    0.3835919610 T T T
    0.5416611910    0.6501871210    0.3835923810 T T T
    0.6250006020    0.6502040500    0.3836059360 T T T
    0.7083371760    0.6501934150    0.3835953900 T T T
    0.7916628240    0.6501929090    0.3835952610 T T T
    0.8749992900    0.6502032540    0.3836055480 T T T
    0.9583394520    0.8498099490    0.3835924460 T T T
    0.0416610600    0.8498101660    0.3835925110 T T T
    0.1250005760    0.8497938160    0.3836059690 T T T
    0.2083372830    0.8498043060    0.3835959400 T T T
    0.2916628240    0.8498043060    0.3835958110 T T T
    0.3749993440    0.8497934540    0.3836058720 T T T
    0.4583394520    0.8498099490    0.3835924460 T T T
    0.5416610840    0.8498101660    0.3835925110 T T T
    0.6250006020    0.8497938160    0.3836059690 T T T
    0.7083372830    0.8498043060    0.3835959400 T T T
    0.7916628240    0.8498043060    0.3835958110 T T T
    0.8749993440    0.8497934540    0.3836058720 T T T
    0.0000000000    0.0000000000    0.3374905440 T T T
    0.0833370020    0.0000013020    0.3374927110 T T T
    0.1666636010    0.9999969620    0.3374927440 T T T
    0.2500000800    0.9999963830    0.3374909320 T T T
    0.3333367070    0.9999961660    0.3374931640 T T T
    0.4166630250   -0.0000000000    0.3374926470 T T T
    0.5000000000    0.0000000000    0.3374905440 T T T
    0.5833370020    0.0000013020    0.3374927110 T T T
    0.6666635610    0.9999969620    0.3374927440 T T T
    0.7500001340    0.9999963830    0.3374909320 T T T
    0.8333367070    0.9999961660    0.3374931640 T T T
    0.9166630520   -0.0000000000    0.3374926470 T T T
   -0.0000000000    0.4999964550    0.3374908030 T T T
    0.0833369550    0.4999963830    0.3374929380 T T T
    0.1666634670    0.5000010130    0.3374927110 T T T
    0.2500001610    0.5000010130    0.3374906730 T T T
    0.3333366270    0.5000012660    0.3374928730 T T T
    0.4166630250    0.4999971790    0.3374927440 T T T
    0.5000000000    0.4999964550    0.3374908030 T T T
    0.5833369480    0.4999963830    0.3374929380 T T T
    0.6666634530    0.5000010130    0.3374927110 T T T
    0.7500001340    0.5000010130    0.3374906730 T T T
    0.8333366000    0.5000012660    0.3374928730 T T T
    0.9166630520    0.4999971790    0.3374927440 T T T
    0.0000000000    0.2499995300    0.3148893050 T T T
    0.0833352010    0.2499996200    0.3148933490 T T T
    0.1666649400    0.2499995660    0.3148911490 T T T
    0.2500006430    0.2499997290    0.3148871050 T T T
    0.3333361720    0.2499994570    0.3148911810 T T T
    0.4166655150    0.2499996380    0.3148938660 T T T
    0.5000002140    0.2499995300    0.3148893050 T T T
    0.5833352340    0.2499996200    0.3148933490 T T T
    0.6666649530    0.2499995660    0.3148911490 T T T
    0.7500006690    0.2499997290    0.3148871050 T T T
    0.8333361720    0.2499994570    0.3148911810 T T T
    0.9166655150    0.2499996380    0.3148938660 T T T
   -0.0000000000    0.7499997290    0.3148866520 T T T
    0.0833363720    0.7499997290    0.3148908900 T T T
    0.1666660370    0.7499995120    0.3148942550 T T T
    0.2500006160    0.7499995120    0.3148903080 T T T
    0.3333348330    0.7499994390    0.3148942220 T T T
    0.4166644440    0.7499994390    0.3148911810 T T T
    0.5000003750    0.7499997290    0.3148866520 T T T
    0.5833363590    0.7499997290    0.3148908900 T T T
    0.6666660240    0.7499995120    0.3148942550 T T T
    0.7500006160    0.7499995120    0.3148903080 T T T
    0.8333347790    0.7499994390    0.3148942220 T T T
    0.9166644440    0.7499994390    0.3148911810 T T T
    0.9583338820    0.0971707960    0.2688377730 T T T
    0.0416687280    0.0971713650    0.2688374820 T T T
    0.1249991970    0.0971699280    0.2688355090 T T T
    0.2083355960    0.0971747290    0.2688357840 T T T
    0.2916660640    0.0971758780    0.2688361720 T T T
    0.3750017270    0.0971701540    0.2688354600 T T T
    0.4583338290    0.0971707960    0.2688377730 T T T
    0.5416686880    0.0971713650    0.2688374820 T T T
    0.6249991570    0.0971699280    0.2688355090 T T T
    0.7083355690    0.0971747290    0.2688357840 T T T
    0.7916660370    0.0971758780    0.2688361720 T T T
    0.8750017540    0.0971701540    0.2688354600 T T T
    0.9583337750    0.4028277660    0.2688375790 T T T
    0.0416688690    0.4028272600    0.2688372400 T T T
    0.1249994240    0.4028293220    0.2688352180 T T T
    0.2083347260    0.4028244750    0.2688354280 T T T
    0.2916660110    0.4028233900    0.2688358480 T T T
    0.3750021290    0.4028291770    0.2688352500 T T T
    0.4583337750    0.4028277660    0.2688375790 T T T
    0.5416689030    0.4028272600    0.2688372400 T T T
    0.6249994240    0.4028293220    0.2688352180 T T T
    0.7083347660    0.4028244750    0.2688354280 T T T
    0.7916660370    0.4028233900    0.2688358480 T T T
    0.8750021290    0.4028291770    0.2688352500 T T T
    0.9583357030    0.5971744040    0.2688356060 T T T
    0.0416660210    0.5971752360    0.2688359290 T T T
    0.1250017940    0.5971699910    0.2688355090 T T T
    0.2083340030    0.5971711120    0.2688377570 T T T
    0.2916686350    0.5971714380    0.2688375950 T T T
    0.3749990490    0.5971699190    0.2688355090 T T T
    0.4583357030    0.5971744040    0.2688356060 T T T
    0.5416660110    0.5971752360    0.2688359290 T T T
    0.6250017810    0.5971699910    0.2688355090 T T T
    0.7083339630    0.5971711120    0.2688377570 T T T
    0.7916686620    0.5971714380    0.2688375950 T T T
    0.8749990230    0.5971699190    0.2688355090 T T T
    0.9583346320    0.9028242580    0.2688354280 T T T
    0.0416660610    0.9028238960    0.2688356870 T T T
    0.1250023300    0.9028293220    0.2688352820 T T T
    0.2083341100    0.9028278030    0.2688375470 T T T
    0.2916689030    0.9028274410    0.2688373850 T T T
    0.3749983000    0.9028293220    0.2688353630 T T T
    0.4583346860    0.9028242580    0.2688354280 T T T
    0.5416660110    0.9028238960    0.2688356870 T T T
    0.6250023160    0.9028293220    0.2688352820 T T T
    0.7083340700    0.9028278030    0.2688375470 T T T
    0.7916688760    0.9028274410    0.2688373850 T T T
    0.8749983260    0.9028293220    0.2688353630 T T T
    0.0000000000    0.2499998190    0.2253218870 T T T
    0.0833349330    0.2499994760    0.2253192020 T T T
    0.1666638690    0.2499996200    0.2253176490 T T T
    0.2499997590    0.2499997110    0.2253227760 T T T
    0.3333376180    0.2499995300    0.2253180370 T T T
    0.4166667470    0.2499998730    0.2253191850 T T T
    0.5000003210    0.2499998190    0.2253218870 T T T
    0.5833349130    0.2499994760    0.2253192020 T T T
    0.6666638820    0.2499996200    0.2253176490 T T T
    0.7499997590    0.2499997110    0.2253227760 T T T
    0.8333376180    0.2499995300    0.2253180370 T T T
    0.9166666930    0.2499998730    0.2253191850 T T T
   -0.0000000000    0.7499998010    0.2253224850 T T T
    0.0833376440    0.7499998010    0.2253178270 T T T
    0.1666669880    0.7499994390    0.2253195570 T T T
    0.2500006430    0.7499998010    0.2253223070 T T T
    0.3333348330    0.7499995120    0.2253194120 T T T
    0.4166635340    0.7499994390    0.2253178910 T T T
    0.5000000000    0.7499998010    0.2253224850 T T T
    0.5833376440    0.7499998010    0.2253178270 T T T
    0.6666669880    0.7499994390    0.2253195570 T T T
    0.7500006690    0.7499998010    0.2253223070 T T T
    0.8333347790    0.7499995120    0.2253194120 T T T
    0.9166634800    0.7499994390    0.2253178910 T T T
   -0.0000000000   -0.0000000000    0.1990848560 F F F
    0.0833333330   -0.0000000000    0.1990848560 F F F
    0.1666666670   -0.0000000000    0.1990848560 F F F
    0.2500000000   -0.0000000000    0.1990848560 F F F
    0.3333333330   -0.0000000000    0.1990848560 F F F
    0.4166666670   -0.0000000000    0.1990848560 F F F
    0.5000000000   -0.0000000000    0.1990848560 F F F
    0.5833333070   -0.0000000000    0.1990848560 F F F
    0.6666666670   -0.0000000000    0.1990848560 F F F
    0.7499999730   -0.0000000000    0.1990848560 F F F
    0.8333333870   -0.0000000000    0.1990848560 F F F
    0.9166665860   -0.0000000000    0.1990848560 F F F